unsat
(define-fun inv ((s (_ BitVec 4)) (t (_ BitVec 4))) (_ BitVec 4) (bvand t #b1100))
0.08user 0.01system 0:00.09elapsed 98%CPU (0avgtext+0avgdata 27692maxresident)k
8inputs+8outputs (0major+1488minor)pagefaults 0swaps
